 $CONTRL SCFTYP=RHF RUNTYP=ENERGY MULT=1 ICHARG=0
   COORD=UNIQUE UNITS=ANGS $END
 $BASIS  GBASIS=N31 NGAUSS=6 NDFUNC=1 $END
 $SYSTEM MWORDS=10 $END
 $DATA
N2 cc-pVDZ
C1
N    7.0    0.000000    0.000000    0.000000
N    7.0    0.000000    0.000000    1.098000
 $END
