# Input Generated using MementoChem
! SP cc-pVDZ

* xyz 0 1 # charge & multiplicity
N 0 0 0
N 0 0 1.098
*
